p edge 100 495
e 1 19
e 1 64
e 1 69
e 1 76
e 1 96
e 2 25
e 2 69
e 2 97
e 3 29
e 3 31
e 3 42
e 3 45
e 3 61
e 3 66
e 3 78
e 3 91
e 3 94
e 3 100
e 4 8
e 4 17
e 4 27
e 4 35
e 4 41
e 4 43
e 4 54
e 4 68
e 4 78
e 4 94
e 4 99
e 5 7
e 5 23
e 5 25
e 5 51
e 5 53
e 5 57
e 5 60
e 5 67
e 5 70
e 5 83
e 5 86
e 5 93
e 5 96
e 5 98
e 5 99
e 6 20
e 6 21
e 6 33
e 6 36
e 6 49
e 7 8
e 7 29
e 7 52
e 7 56
e 7 64
e 7 74
e 7 90
e 7 99
e 8 13
e 8 17
e 8 21
e 8 33
e 8 35
e 8 38
e 8 42
e 8 45
e 8 49
e 8 60
e 8 61
e 8 68
e 8 78
e 8 93
e 9 10
e 9 12
e 9 20
e 9 23
e 9 38
e 9 39
e 9 40
e 9 59
e 9 63
e 9 70
e 9 81
e 9 86
e 9 95
e 10 31
e 10 46
e 10 48
e 10 54
e 10 58
e 10 64
e 10 72
e 10 83
e 10 84
e 10 92
e 11 12
e 11 16
e 11 44
e 11 48
e 11 62
e 11 86
e 11 94
e 11 95
e 12 18
e 12 29
e 12 34
e 12 41
e 12 44
e 12 48
e 12 54
e 12 79
e 12 85
e 12 96
e 12 99
e 13 30
e 13 43
e 13 52
e 13 62
e 13 68
e 13 76
e 13 82
e 13 86
e 13 97
e 13 100
e 14 25
e 14 43
e 14 69
e 14 71
e 15 27
e 15 50
e 15 52
e 15 56
e 15 69
e 15 72
e 15 75
e 15 82
e 15 84
e 16 38
e 16 42
e 17 19
e 17 33
e 17 44
e 17 47
e 17 51
e 17 57
e 17 62
e 17 79
e 18 26
e 18 39
e 18 51
e 18 59
e 18 69
e 18 70
e 18 73
e 18 79
e 18 91
e 18 94
e 18 97
e 18 98
e 19 58
e 19 67
e 19 68
e 19 74
e 19 91
e 19 95
e 20 23
e 20 60
e 20 63
e 20 65
e 20 66
e 20 68
e 20 75
e 20 80
e 20 82
e 20 83
e 21 22
e 21 33
e 21 41
e 21 43
e 21 52
e 21 55
e 21 63
e 21 75
e 22 80
e 22 96
e 23 30
e 23 39
e 23 48
e 23 51
e 23 60
e 23 61
e 23 69
e 23 73
e 23 76
e 23 99
e 24 30
e 24 45
e 24 54
e 24 55
e 24 76
e 24 77
e 24 94
e 25 27
e 25 43
e 25 44
e 25 47
e 25 57
e 25 58
e 25 69
e 25 91
e 25 93
e 25 95
e 25 99
e 26 35
e 26 52
e 26 63
e 26 84
e 26 86
e 26 96
e 26 99
e 27 32
e 27 33
e 27 41
e 27 45
e 27 63
e 27 94
e 28 41
e 28 45
e 28 49
e 28 52
e 28 58
e 28 78
e 29 39
e 29 63
e 29 64
e 29 65
e 29 69
e 29 73
e 29 81
e 29 82
e 29 99
e 30 31
e 30 41
e 30 52
e 30 56
e 30 59
e 30 66
e 30 68
e 30 77
e 30 80
e 30 81
e 30 85
e 30 95
e 31 34
e 31 35
e 31 39
e 31 46
e 31 53
e 31 60
e 31 61
e 31 66
e 31 71
e 31 72
e 31 97
e 31 99
e 31 100
e 32 42
e 32 47
e 32 66
e 32 69
e 32 74
e 32 87
e 33 38
e 33 77
e 33 85
e 33 87
e 33 100
e 34 64
e 34 72
e 34 78
e 35 44
e 35 48
e 35 70
e 35 77
e 35 78
e 35 90
e 35 93
e 36 41
e 36 63
e 36 69
e 36 72
e 36 75
e 36 79
e 36 100
e 37 41
e 37 43
e 37 53
e 37 55
e 37 61
e 37 92
e 37 95
e 37 100
e 38 55
e 38 62
e 38 64
e 38 67
e 38 82
e 38 93
e 39 54
e 39 57
e 39 76
e 40 50
e 40 52
e 40 57
e 40 95
e 40 99
e 41 71
e 41 98
e 42 49
e 42 61
e 42 63
e 42 64
e 42 85
e 42 91
e 42 94
e 43 44
e 43 45
e 43 54
e 43 57
e 43 60
e 43 61
e 43 68
e 43 72
e 43 73
e 44 54
e 44 59
e 44 72
e 44 75
e 44 90
e 45 47
e 45 49
e 45 52
e 45 68
e 45 76
e 45 77
e 45 79
e 45 80
e 45 81
e 46 47
e 46 51
e 46 59
e 46 64
e 46 70
e 46 84
e 46 90
e 46 98
e 47 53
e 47 89
e 47 90
e 47 95
e 48 52
e 48 63
e 48 65
e 48 82
e 49 64
e 49 71
e 49 75
e 49 84
e 49 88
e 49 96
e 49 99
e 50 67
e 50 94
e 51 63
e 51 81
e 52 56
e 52 69
e 52 93
e 53 60
e 53 66
e 53 71
e 54 65
e 54 97
e 55 61
e 55 66
e 55 72
e 55 86
e 56 58
e 56 59
e 56 69
e 56 73
e 56 78
e 56 88
e 56 98
e 57 73
e 57 77
e 57 78
e 58 63
e 58 67
e 58 69
e 58 72
e 58 92
e 58 93
e 58 95
e 58 99
e 58 100
e 59 63
e 59 84
e 59 96
e 59 99
e 59 100
e 60 69
e 60 73
e 60 88
e 60 95
e 60 100
e 61 77
e 61 81
e 61 84
e 62 64
e 62 70
e 62 75
e 62 80
e 62 85
e 62 92
e 62 99
e 62 100
e 63 72
e 63 80
e 63 84
e 63 94
e 63 100
e 64 71
e 64 76
e 64 78
e 64 80
e 64 100
e 65 68
e 65 72
e 65 94
e 66 73
e 66 81
e 66 86
e 66 92
e 66 98
e 67 70
e 67 77
e 67 82
e 67 88
e 68 80
e 68 89
e 69 71
e 69 78
e 70 87
e 71 74
e 71 77
e 71 79
e 71 81
e 71 89
e 72 81
e 72 89
e 73 92
e 73 97
e 73 98
e 74 75
e 74 100
e 75 100
e 76 94
e 77 93
e 77 94
e 77 95
e 78 94
e 79 83
e 79 94
e 79 97
e 79 100
e 80 93
e 80 97
e 81 94
e 81 96
e 81 97
e 82 87
e 82 95
e 83 87
e 83 90
e 83 97
e 84 86
e 84 92
e 85 100
e 86 96
e 87 91
e 88 89
e 89 92
e 90 91
e 90 95
e 97 99
